c turning on binary mode checking
c parsing input formula with 259840 variables and 1039929 clauses
c finished parsing, read 23301325 bytes from proof file
c detected empty clause; start verification via backward checking
c 2220 of 1039929 clauses in core                            
c 2429 of 607688 lemmas in core using 10945 resolution steps
c 0 RAT lemmas in core; 58 redundant literals in core lemmas
s VERIFIED
c verification time: 2.326 seconds
